results/res_prop_muc/res_Cimatti_mathsat_cores/QF_IDL/MinMax_safe_bgmc002.smt.smt2.res
unsat
( c10
  c1016
  c1030
  c1053
  c1057
  c1099
  c11
  c1108
  c12
  c27
  c3052
  c3058
  c3131
  c3138
  c3139
  c3159
  c3163
  c5
  c6
  c623
  c626 )
